100 1000
77 79
6 16
36 70
77 99
74 59
89 64
83 95
60 6
52 30
16 10
1 37
26 30
2 47
34 44
6 95
35 78
13 8
34 80
33 82
75 40
51 14
34 28
39 31
90 69
93 14
16 83
9 55
8 78
37 69
9 51
30 100
81 33
96 25
73 73
74 1
85 60
26 54
88 72
4 38
87 22
13 97
84 66
17 61
57 79
1 64
61 77
39 59
2 60
99 60
43 4
91 96
72 21
25 86
52 47
43 10
11 2
52 15
100 46
81 84
91 39
38 56
39 7
38 11
30 24
28 90
82 75
96 15
72 37
45 55
21 2
37 37
96 27
50 43
31 44
37 29
38 41
24 40
46 84
52 21
72 96
89 55
55 20
86 98
32 28
43 9
8 47
80 21
57 60
11 58
37 38
42 99
94 14
35 85
42 16
47 37
73 60
52 35
85 99
39 69
4 60
